1 -1 2 0
1 -2 3 0
1 2 1 0
1 4 5 0
1 4 6 0
1 4 -7 0
1 8 9 0
1 -8 -10 0
1 8 -11 0
1 8 -6 0
1 -8 7 0
1 12 13 0
1 -12 -14 0
1 12 15 0
1 12 7 0
1 7 16 0
1 7 12 0
1 -7 15 0
1 7 17 0
1 -7 -4 0
1 10 13 0
1 -10 18 0
1 -10 2 0
1 -10 -19 0
1 -10 -15 0
1 6 -13 0
1 -6 20 0
1 -17 9 0
1 -17 -14 0
1 17 -12 0
1 -17 -11 0
1 17 -21 0
1 -14 9 0
1 -14 18 0
1 14 -11 0
1 14 -7 0
1 22 9 0
1 22 23 0
1 22 24 0
1 22 7 0
1 23 -9 0
1 -23 -25 0
1 23 26 0
1 23 27 0
1 -23 -12 0
1 23 24 0
1 -23 -7 0
1 28 -29 0
1 28 -30 0
1 28 -25 0
1 -28 -23 0
1 -28 8 0
1 28 -31 0
1 25 -32 0
1 -25 -23 0
1 -25 -33 0
1 25 -34 0
1 -25 -28 0
1 -25 -22 0
1 -25 -17 0
1 -11 -9 0
1 -11 -35 0
1 -11 -23 0
1 -11 -33 0
1 11 36 0
1 -11 -22 0
1 11 17 0
1 -11 37 0
1 9 13 0
1 9 23 0
1 9 33 0
1 9 15 0
1 9 -37 0
1 38 -25 0
1 38 39 0
1 -38 -27 0
1 -38 -15 0
1 38 24 0
1 -30 13 0
1 -30 38 0
1 30 24 0
1 34 -25 0
1 -34 -39 0
1 34 -28 0
1 -29 27 0
1 29 34 0
1 29 -28 0
1 -29 -40 0
1 -29 24 0
1 -24 -27 0
1 24 34 0
1 24 38 0
1 27 -41 0
1 27 34 0
1 -27 -38 0
1 -27 -22 0
1 27 -24 0
1 40 -29 0
1 -40 -39 0
1 -40 -42 0
1 -40 34 0
1 -40 -38 0
1 40 -22 0
1 40 37 0
1 -39 23 0
1 -39 43 0
1 39 42 0
1 39 -33 0
1 -39 22 0
1 -39 40 0
1 39 -44 0
1 -45 -3 0
1 45 46 0
1 45 -1 0
1 -3 -47 0
1 3 -2 0
1 -5 48 0
1 -5 -49 0
1 -5 50 0
1 -51 49 0
1 51 -50 0
1 -51 8 0
1 51 52 0
1 51 -5 0
1 -48 53 0
1 -48 -18 0
1 48 20 0
1 48 5 0
1 -54 -51 0
1 -54 -55 0
1 -54 5 0
1 54 45 0
1 -47 -46 0
1 47 -45 0
1 46 47 0
1 46 -56 0
1 21 -18 0
1 -21 54 0
1 21 17 0
1 21 6 0
1 18 48 0
1 -18 -52 0
1 -18 -21 0
1 20 26 0
1 20 -49 0
1 -20 10 0
1 -20 54 0
1 -20 57 0
1 26 -23 0
1 -26 49 0
1 26 58 0
1 -26 -20 0
1 -26 -6 0
1 -50 -13 0
1 -50 18 0
1 -50 -51 0
1 -50 -59 0
1 -50 -15 0
1 50 -20 0
1 -60 61 0
1 -60 -35 0
1 60 -13 0
1 -60 -18 0
1 60 -50 0
1 -60 -59 0
1 -60 -36 0
1 -60 62 0
1 -60 21 0
1 -49 -61 0
1 -49 26 0
1 -49 63 0
1 -49 18 0
1 -49 51 0
1 -49 -20 0
1 -52 -26 0
1 52 -59 0
1 52 20 0
1 52 -21 0
1 -52 5 0
1 -15 -9 0
1 -15 -50 0
1 -15 -64 0
1 -15 12 0
1 -15 38 0
1 -15 -60 0
1 15 65 0
1 -15 7 0
1 13 9 0
1 13 -30 0
1 -13 50 0
1 -13 58 0
1 13 10 0
1 -13 -12 0
1 -13 -11 0
1 13 -6 0
1 36 50 0
1 -36 -64 0
1 -36 -19 0
1 36 -57 0
1 36 -65 0
1 -35 19 0
1 -35 60 0
1 35 57 0
1 58 35 0
1 58 -66 0
1 -58 15 0
1 -58 -20 0
1 58 -65 0
1 -58 -67 0
1 65 -68 0
1 65 66 0
1 -65 -33 0
1 -65 -69 0
1 -65 -37 0
1 64 61 0
1 64 -70 0
1 64 -68 0
1 64 -36 0
1 -64 -20 0
1 -57 -13 0
1 -57 -26 0
1 -57 64 0
1 -57 -59 0
1 57 36 0
1 57 -15 0
1 57 20 0
1 33 39 0
1 -33 -11 0
1 33 -28 0
1 37 -61 0
1 37 -16 0
1 37 -39 0
1 -37 -71 0
1 37 -11 0
1 37 -28 0
1 37 40 0
1 -66 -32 0
1 -66 58 0
1 66 -40 0
1 66 65 0
1 -66 67 0
1 -67 -16 0
1 67 -72 0
1 -67 32 0
1 67 58 0
1 67 66 0
1 -67 -19 0
1 67 71 0
1 -67 -73 0
1 -67 65 0
1 67 -74 0
1 71 -42 0
1 -71 -66 0
1 -71 -33 0
1 -71 -36 0
1 71 75 0
1 16 -35 0
1 16 76 0
1 -16 -66 0
1 -16 -71 0
1 -16 -77 0
1 16 44 0
1 19 -76 0
1 -19 66 0
1 19 10 0
1 -19 33 0
1 19 -36 0
1 19 -78 0
1 -78 33 0
1 78 36 0
1 -78 75 0
1 -78 -79 0
1 -78 -69 0
1 42 16 0
1 -42 -32 0
1 42 68 0
1 42 44 0
1 44 -16 0
1 -44 -72 0
1 44 -42 0
1 44 -71 0
1 -44 31 0
1 -44 -24 0
1 -44 69 0
1 -80 -72 0
1 80 -81 0
1 -80 71 0
1 -80 73 0
1 80 -82 0
1 -77 -16 0
1 -77 -72 0
1 77 43 0
1 -77 80 0
1 77 -71 0
1 77 31 0
1 -31 -83 0
1 31 84 0
1 31 66 0
1 -31 85 0
1 -31 44 0
1 -31 -67 0
1 32 83 0
1 -32 84 0
1 -32 -66 0
1 -32 86 0
1 -32 31 0
1 32 85 0
1 73 87 0
1 -73 -80 0
1 73 -77 0
1 72 9 0
1 -72 76 0
1 -72 -42 0
1 72 73 0
1 72 -75 0
1 -72 77 0
1 72 67 0
1 -84 41 0
1 84 -82 0
1 84 -31 0
1 -84 -88 0
1 85 -32 0
1 85 -43 0
1 85 84 0
1 -85 -31 0
1 85 -88 0
1 83 -41 0
1 -83 -86 0
1 -83 -31 0
1 83 -88 0
1 86 32 0
1 -86 -83 0
1 86 -41 0
1 86 82 0
1 86 88 0
1 88 86 0
1 -88 -85 0
1 -88 -77 0
1 -41 -83 0
1 41 84 0
1 41 -86 0
1 -41 -85 0
1 82 80 0
1 82 -77 0
1 -43 -39 0
1 43 -84 0
1 43 85 0
1 59 -53 0
1 -59 49 0
1 -59 -50 0
1 59 -60 0
1 61 64 0
1 61 -59 0
1 61 -56 0
1 -61 -60 0
1 -61 37 0
1 89 53 0
1 89 -63 0
1 89 64 0
1 89 -66 0
1 -89 -55 0
1 74 90 0
1 74 -64 0
1 74 89 0
1 -74 56 0
1 74 57 0
1 -74 67 0
1 -53 -89 0
1 -53 -79 0
1 -53 -74 0
1 55 53 0
1 90 -47 0
1 -56 -61 0
1 56 59 0
1 68 -53 0
1 68 63 0
1 -68 64 0
1 -68 -42 0
1 68 -65 0
1 68 78 0
1 69 -53 0
1 69 -64 0
1 -69 -65 0
1 -69 68 0
1 -69 19 0
1 -69 91 0
1 -69 57 0
1 -69 78 0
1 -81 -53 0
1 -81 92 0
1 81 -63 0
1 81 62 0
1 79 53 0
1 -79 63 0
1 79 -70 0
1 -79 -93 0
1 94 50 0
1 -94 74 0
1 -62 -87 0
1 62 -94 0
1 62 81 0
1 -62 95 0
1 62 -79 0
1 62 -74 0
1 63 -81 0
1 63 -91 0
1 63 69 0
1 63 -74 0
1 91 -81 0
1 -91 -89 0
1 -91 -52 0
1 -76 -62 0
1 76 -70 0
1 76 -93 0
1 76 71 0
1 -76 78 0
1 75 -94 0
1 75 70 0
1 75 19 0
1 -75 -71 0
1 -75 -73 0
1 75 85 0
1 75 92 0
1 87 94 0
1 -87 93 0
1 -87 -62 0
1 87 92 0
1 95 72 0
1 -95 -73 0
1 95 -92 0
1 93 -81 0
1 93 -58 0
1 -93 95 0
1 -93 96 0
1 -96 87 0
1 -96 -95 0
1 -96 -75 0
1 96 -79 0
1 -70 -76 0
1 70 -81 0
1 92 95 0
1 -92 75 0
